--- Job trnsport.gms Start 12/10/24 18:01:41 48.4.0 d74fe9ea WEX-WEI x86 64bit/MS Windows
--- Applying:
    C:\GAMS\48\gmsprmNT.txt
--- GAMS Parameters defined
    Input C:\Users\Husted42\Documents\GitHub\Husted42\Gams\trnsport.gms
    PageSize 0
    ScrDir C:\Users\Husted42\Documents\GitHub\Husted42\Gams\225a\
    SysDir C:\GAMS\48\
    LogOption 3
    ErrMsg 1
    ErrorLog 99
    IDE 1
    LstTitleLeftAligned 1
Licensee: GAMS Demo, for EULA and demo limitations see   G241001/0001CB-GEN
          https://www.gams.com/latest/docs/UG%5FLicense.html         DC0000
          C:\GAMS\48\gamslice.txt
          Demo license for demonstration and instructional purposes only
Processor information: 1 socket(s), 16 core(s), and 22 thread(s) available
GAMS 48.4.0   Copyright (C) 1987-2024 GAMS Development. All rights reserved
--- Starting compilation
--- trnsport.gms(66) 3 Mb
--- Starting execution: elapsed 0:00:00.009
--- trnsport.gms(43) 4 Mb
--- Generating LP model transport
--- trnsport.gms(64) 4 Mb
---   6 rows  7 columns  19 non-zeroes
--- Range statistics (absolute non-zero finite values)
--- RHS       [min, max] : [ 2.750E+02, 6.000E+02] - Zero values observed as well
--- Bound     [min, max] : [        NA,        NA] - Zero values observed as well
--- Matrix    [min, max] : [ 1.260E-01, 1.000E+00]
--- Executing CPLEX (Solvelink=2): elapsed 0:00:00.017

IBM ILOG CPLEX   48.4.0 d74fe9ea Nov 27, 2024          WEI x86 64bit/MS Window

*** This solver runs with a demo license. No commercial use.
--- GMO setup time: 0.00s
--- GMO memory 0.50 Mb (peak 0.50 Mb)
--- Dictionary memory 0.00 Mb
--- Cplex 22.1.1.0 link memory 0.00 Mb (peak 0.00 Mb)
--- Starting Cplex

Version identifier: 22.1.1.0 | 2022-11-27 | 9160aff4d
CPXPARAM_Advance                                 0
CPXPARAM_Simplex_Display                         2
CPXPARAM_MIP_Display                             4
CPXPARAM_MIP_Pool_Capacity                       0
CPXPARAM_MIP_Tolerances_AbsMIPGap                0
Tried aggregator 1 time.
LP Presolve eliminated 0 rows and 1 columns.
Reduced LP has 5 rows, 6 columns, and 12 nonzeros.
Presolve time = 0.00 sec. (0.00 ticks)

Iteration      Dual Objective            In Variable           Out Variable
     1              73.125000    x(seattle,new-york) demand(new-york) slack
     2             119.025000     x(seattle,chicago)  demand(chicago) slack
     3             153.675000    x(san-diego,topeka)   demand(topeka) slack
     4             153.675000  x(san-diego,new-york)  supply(seattle) slack

--- LP status (1): optimal.
--- Cplex Time: 0.00sec (det. 0.01 ticks)


Optimal solution found
Objective:          153.675000

--- Reading solution for model transport
--- Executing after solve: elapsed 0:00:00.081
--- trnsport.gms(66) 4 Mb
*** Status: Normal completion
--- Job trnsport.gms Stop 12/10/24 18:01:41 elapsed 0:00:00.081
